POSCAR
1.00000000000000
10.1823377609         0.0000000000         0.0000000000
5.0911688805         8.8181631709         0.0000000000
0.0000000000         0.0000000000        24.9415321350
Co Cr Ni
64 64 64
Cartesian
6.36396	3.67423	16.6277
3.81838	2.20454	12.4708
2.54558	0	6.23538
7.63675	4.40908	18.7062
7.63675	0	18.7062
6.36396	5.14393	8.31384
3.81838	5.14393	20.7846
11.4551	6.61362	6.23538
3.81838	5.14393	8.31384
7.63675	1.46969	16.6277
8.90954	0.734847	20.7846
12.7279	7.34847	8.31384
10.1823	1.46969	4.15692
8.90955	3.67423	22.8631
1.27279	0.734847	2.07846
8.90954	2.20454	18.7062
3.81838	6.61362	6.23538
8.90954	2.20454	6.23538
8.90954	8.08332	4.15692
7.63675	5.87878	22.8631
2.54558	4.40908	6.23538
7.63675	7.34847	2.07846
12.7279	7.34847	20.7846
8.90955	6.61362	18.7062
11.4551	5.14393	14.5492
5.09117	2.93939	8.31384
3.81838	3.67423	4.15692
11.4551	8.08332	4.15692
8.90955	3.67423	4.15692
5.09117	0	12.4708
2.54558	4.40908	0
3.81838	5.14393	2.07846
12.7279	5.87878	10.3923
3.81838	6.61362	18.7062
10.1823	1.46969	16.6277
5.09117	7.34847	2.07846
5.09117	7.34847	20.7846
11.4551	6.61362	0
8.90955	3.67423	16.6277
7.63675	0	6.23538
8.90954	5.14393	8.31384
3.81838	3.67423	16.6277
5.09117	4.40908	12.4708
10.1823	1.46969	22.8631
1.27279	2.20454	12.4708
11.4551	5.14393	8.31384
12.7279	7.34847	14.5492
8.90954	0.734847	8.31384
7.63675	5.87878	10.3923
11.4551	5.14393	20.7846
8.90954	2.20454	12.4708
3.81838	2.20454	18.7062
2.54558	0	12.4708
1.27279	2.20454	6.23538
6.36396	0.734847	2.07846
6.36396	3.67423	22.8631
5.09117	7.34847	14.5492
5.09117	4.40908	6.23538
14.0007	8.08332	16.6277
8.90954	2.20454	0
10.1823	7.34847	2.07846
8.90955	6.61362	12.4708
6.36396	5.14393	14.5492
7.63675	7.34847	20.7846
6.36396	0.734847	14.5492
5.09117	1.46969	4.15692
10.1823	4.40908	12.4708
1.27279	0.734847	20.7846
6.36396	8.08332	22.8631
11.4551	8.08332	22.8631
3.81838	3.67423	10.3923
11.4551	3.67423	22.8631
10.1823	7.34847	20.7846
6.36396	6.61362	12.4708
2.54558	2.93939	8.31384
11.4551	3.67423	16.6277
8.90955	3.67423	10.3923
3.81838	3.67423	22.8631
11.4551	6.61362	12.4708
7.63675	7.34847	14.5492
5.09117	5.87878	22.8631
3.81838	2.20454	0
7.63675	4.40908	6.23538
8.90955	6.61362	0
5.09117	0	6.23538
2.54558	0	0
8.90955	6.61362	6.23538
11.4551	3.67423	10.3923
14.0007	8.08332	10.3923
5.09117	7.34847	8.31384
7.63675	4.40908	12.4708
5.09117	2.93939	2.07846
3.81838	5.14393	14.5492
8.90954	5.14393	14.5492
10.1823	4.40908	18.7062
2.54558	1.46969	4.15692
2.54558	4.40908	18.7062
5.09117	2.93939	14.5492
8.90954	5.14393	2.07846
10.1823	2.93939	8.31384
10.1823	5.87878	4.15692
6.36396	0.734847	20.7846
2.54558	2.93939	2.07846
6.36396	3.67423	10.3923
2.54558	0	18.7062
10.1823	2.93939	20.7846
5.09117	1.46969	10.3923
6.36396	3.67423	4.15692
7.63675	1.46969	22.8631
0	0	6.23538
3.81838	6.61362	0
5.09117	2.93939	20.7846
6.36396	8.08332	16.6277
1.27279	0.734847	14.5492
7.63675	1.46969	4.15692
11.4551	5.14393	2.07846
7.63675	5.87878	4.15692
7.63675	2.93939	20.7846
6.36396	5.14393	20.7846
6.36396	2.20454	6.23538
2.54558	4.40908	12.4708
6.36396	6.61362	18.7062
0	0	0
5.09117	5.87878	10.3923
5.09117	5.87878	16.6277
2.54558	1.46969	16.6277
8.90954	8.08332	16.6277
6.36396	5.14393	2.07846
10.1823	5.87878	16.6277
6.36396	6.61362	0
2.54558	2.93939	14.5492
7.63675	2.93939	8.31384
11.4551	3.67423	4.15692
0	0	12.4708
10.1823	4.40908	6.23538
5.09117	0	0
5.09117	0	18.7062
11.4551	8.08332	10.3923
14.0007	8.08332	4.15692
1.27279	0.734847	8.31384
6.36396	0.734847	8.31384
5.09117	1.46969	16.6277
3.81838	0.734847	8.31384
12.7279	5.87878	16.6277
5.09117	4.40908	0
8.90954	8.08332	22.8631
11.4551	8.08332	16.6277
8.90954	0.734847	2.07846
5.09117	1.46969	22.8631
7.63675	2.93939	14.5492
7.63675	4.40908	0
6.36396	2.20454	0
6.36396	2.20454	18.7062
8.90954	5.14393	20.7846
6.36396	6.61362	6.23538
10.1823	7.34847	8.31384
3.81838	0.734847	2.07846
3.81838	2.20454	6.23538
7.63675	1.46969	10.3923
1.27279	2.20454	18.7062
7.63675	0	0
10.1823	4.40908	0
12.7279	7.34847	2.07846
7.63675	7.34847	8.31384
7.63675	2.93939	2.07846
7.63675	0	12.4708
3.81838	0.734847	14.5492
8.90954	0.734847	14.5492
10.1823	7.34847	14.5492
5.09117	4.40908	18.7062
6.36396	8.08332	4.15692
6.36396	8.08332	10.3923
10.1823	1.46969	10.3923
3.81838	0.734847	20.7846
1.27279	2.20454	0
2.54558	1.46969	10.3923
10.1823	5.87878	22.8631
7.63675	5.87878	16.6277
12.7279	5.87878	22.8631
0	0	18.7062
10.1823	2.93939	14.5492
11.4551	6.61362	18.7062
6.36396	2.20454	12.4708
3.81838	6.61362	12.4708
10.1823	2.93939	2.07846
12.7279	5.87878	4.15692
2.54558	2.93939	20.7846
5.09117	5.87878	4.15692
8.90954	8.08332	10.3923
14.0007	8.08332	22.8631
10.1823	5.87878	10.3923
2.54558	1.46969	22.8631
