POSCAR
1.00000000000000
10.1823377609         0.0000000000         0.0000000000
5.0911688805         8.8181631709         0.0000000000
0.9976617013         0.4988292166        24.9415321197
Co Cr Ni
64 64 64
Cartesian
10.1823	8.81816	6.23538
14.0007	6.61362	6.23538
11.4551	6.61362	6.23538
2.54558	1.46969	4.15692
10.1823	7.34847	8.31384
10.1823	4.40908	6.23538
10.1695	4.41423	16.6277
12.7151	5.88393	20.7846
10.1695	8.82331	16.6277
8.89675	6.61877	16.6277
3.81838	0.734847	2.07846
5.07838	7.35362	18.7062
3.81838	2.20454	6.23538
6.35117	0.739999	18.7062
3.80558	3.67939	20.7846
7.63675	4.40908	6.23538
12.7279	5.87878	10.3923
5.09117	2.93939	2.07846
11.4551	8.08332	4.15692
11.4423	2.20969	16.6277
3.81838	0.734846	8.31384
12.7151	5.88393	14.5492
6.35117	8.08847	14.5492
3.81838	3.67423	10.3923
3.80558	2.20969	16.6277
5.09117	1.46969	4.15692
5.09117	5.87877	4.15692
0	0	0
5.07838	7.35362	12.4708
15.2607	8.82331	22.8631
15.2735	8.81816	6.23538
13.9879	8.08847	14.5492
3.80558	5.14908	12.4708
10.1823	1.46969	4.15692
6.35117	8.08847	20.7846
13.9879	6.61877	16.6277
12.7151	7.35362	12.4708
12.7151	4.41423	16.6277
6.36396	2.20454	0
2.54558	0	0
5.09117	5.87878	10.3923
10.1823	2.93939	2.07846
10.1695	1.47485	14.5492
8.90955	3.67423	10.3923
6.35117	5.14908	12.4708
10.1695	1.47485	20.7846
12.7279	4.40908	6.23538
10.1695	8.82331	22.8631
5.09117	7.34847	8.31384
5.09117	0	0
10.1823	5.87877	4.15692
8.89675	8.08847	14.5492
7.62396	1.47485	14.5492
11.4551	8.08332	10.3923
10.1823	5.87878	10.3923
2.53279	1.47485	14.5492
6.35117	2.20969	22.8631
6.36396	0.734847	2.07846
8.89675	3.67939	14.5492
5.07838	4.41423	16.6277
8.89675	5.14908	18.7062
7.62396	2.94454	18.7062
7.63675	2.93939	2.07846
6.35117	2.20969	16.6277
3.81838	6.61362	0
3.80558	5.14908	18.7062
10.1823	4.40908	0
3.81838	3.67423	4.15692
8.90955	6.61362	6.23538
8.89675	3.67939	20.7846
8.89675	2.20969	22.8631
11.4551	3.67423	10.3923
11.4423	5.14908	12.4708
7.62396	8.82331	16.6277
8.89675	2.20969	16.6277
14.0007	8.08332	4.15692
7.63675	1.46969	4.15692
1.26	0.739999	18.7062
8.90954	8.08332	10.3923
6.36396	6.61362	0
8.90954	2.20454	6.23538
12.7279	8.81816	6.23538
3.81838	2.20454	0
5.09117	4.40908	6.23538
8.89675	0.739999	12.4708
10.1695	4.41423	22.8631
11.4551	6.61362	0
6.35117	3.67939	14.5492
11.4551	3.67423	4.15692
1.26	0.739999	12.4708
5.07838	1.47485	14.5492
7.63675	4.40908	0
6.35117	0.739999	12.4708
7.63675	7.34847	8.31384
10.1695	2.94454	18.7062
7.63675	5.87877	4.15692
10.1695	7.35362	18.7062
2.53279	2.94454	18.7062
7.62396	4.41423	22.8631
7.63675	0	0
3.80558	2.20969	22.8631
5.09117	2.93939	8.31384
1.27279	2.20454	0
8.90954	0.734847	2.07846
12.7151	4.41423	22.8631
12.7279	7.34847	2.07846
8.89675	6.61877	22.8631
8.89675	5.14908	12.4708
8.90954	2.20454	0
14.0007	8.08332	10.3923
2.54558	2.93939	8.31384
12.7151	8.82331	22.8631
2.54558	1.46969	10.3923
5.09117	1.46969	10.3923
8.90954	0.734846	8.31384
13.9879	6.61877	22.8631
11.4423	2.20969	22.8631
3.81838	5.14393	8.31384
8.90955	6.61362	0
1.27279	0.734846	8.31384
6.36396	2.20454	6.23538
6.36396	8.08332	10.3923
7.62396	8.82331	22.8631
10.1823	7.34847	2.07846
12.7151	7.35362	18.7062
3.80558	3.67939	14.5492
5.07838	4.41423	22.8631
7.63675	8.81816	6.23538
13.9879	8.08847	20.7846
7.63675	7.34847	2.07846
5.07838	2.94454	18.7062
8.90954	5.14393	2.07846
6.36396	6.61362	6.23538
5.07838	1.47485	20.7846
11.4551	5.14393	8.31384
11.4423	8.08847	20.7846
12.7279	7.34847	8.31384
5.07838	2.94454	12.4708
11.4423	3.67939	14.5492
5.09117	4.40908	0
7.62396	5.88393	20.7846
6.35117	5.14908	18.7062
11.4423	6.61877	16.6277
8.90954	8.08332	4.15692
6.36396	5.14393	8.31384
2.54558	2.93939	2.07846
6.35117	6.61877	22.8631
11.4551	5.14393	2.07846
8.90955	3.67423	4.15692
7.63675	5.87878	10.3923
11.4423	3.67939	20.7846
8.89675	0.739999	18.7062
11.4423	5.14908	18.7062
10.1695	5.88393	14.5492
12.7279	5.87877	4.15692
11.4423	8.08847	14.5492
11.4423	6.61877	22.8631
6.36396	3.67423	10.3923
8.90954	5.14393	8.31384
3.81838	5.14393	2.07846
7.62396	5.88393	14.5492
2.53279	1.47485	20.7846
7.63675	1.46969	10.3923
12.7151	8.82331	16.6277
2.53279	2.94454	12.4708
10.1695	2.94454	12.4708
6.36396	0.734846	8.31384
6.36396	5.14393	2.07846
6.36396	8.08332	4.15692
6.36396	3.67423	4.15692
15.2607	8.82331	16.6277
3.80558	0.739999	18.7062
8.89675	8.08847	20.7846
11.4551	2.20454	6.23538
6.35117	6.61877	16.6277
7.62396	4.41423	16.6277
10.1823	1.46969	10.3923
7.62396	7.35362	18.7062
1.27279	0.734847	2.07846
7.62396	2.94454	12.4708
10.1823	2.93939	8.31384
2.54558	4.40908	0
5.07838	5.88393	20.7846
10.1695	5.88393	20.7846
5.07838	5.88393	14.5492
5.09117	7.34847	2.07846
6.35117	3.67939	20.7846
7.62396	1.47485	20.7846
7.62396	7.35362	12.4708
3.80558	0.739999	12.4708
7.63675	2.93939	8.31384
10.1695	7.35362	12.4708
